p edge 100 495
e 1 19
e 1 26
e 1 45
e 1 58
e 1 65
e 1 68
e 1 69
e 1 76
e 1 78
e 2 10
e 2 34
e 2 42
e 2 56
e 2 62
e 2 68
e 2 85
e 2 96
e 3 13
e 3 19
e 3 26
e 3 32
e 3 35
e 3 44
e 3 53
e 3 54
e 3 58
e 3 83
e 4 6
e 4 13
e 4 18
e 4 24
e 4 42
e 4 56
e 4 59
e 4 79
e 5 10
e 5 25
e 5 28
e 5 29
e 5 35
e 5 41
e 5 55
e 5 56
e 5 63
e 5 64
e 5 88
e 5 92
e 6 21
e 6 32
e 6 37
e 6 60
e 6 62
e 6 63
e 6 69
e 6 72
e 6 78
e 6 98
e 7 35
e 7 92
e 8 9
e 8 10
e 8 20
e 8 25
e 8 32
e 8 49
e 8 51
e 8 61
e 8 67
e 8 73
e 8 77
e 8 78
e 8 98
e 9 13
e 9 41
e 9 44
e 9 48
e 9 51
e 9 75
e 9 83
e 10 11
e 10 12
e 10 28
e 10 39
e 10 40
e 10 55
e 10 61
e 10 62
e 10 74
e 10 75
e 10 84
e 10 86
e 10 99
e 10 100
e 11 12
e 11 35
e 11 39
e 11 67
e 11 81
e 11 83
e 11 94
e 11 100
e 12 15
e 12 19
e 12 21
e 12 33
e 12 44
e 12 47
e 12 52
e 12 91
e 13 22
e 13 36
e 13 42
e 13 78
e 13 89
e 13 93
e 13 97
e 14 17
e 14 22
e 14 24
e 14 30
e 14 31
e 14 43
e 14 47
e 14 49
e 14 51
e 14 52
e 14 57
e 14 69
e 14 80
e 14 81
e 14 85
e 14 92
e 15 32
e 15 46
e 15 53
e 15 69
e 15 76
e 15 81
e 15 90
e 15 91
e 16 48
e 16 55
e 16 63
e 16 79
e 16 84
e 17 26
e 17 29
e 17 35
e 17 39
e 17 40
e 17 48
e 17 49
e 17 74
e 17 81
e 17 100
e 18 19
e 18 26
e 18 37
e 18 49
e 18 53
e 18 58
e 18 66
e 18 88
e 19 21
e 19 39
e 19 51
e 19 57
e 19 64
e 19 77
e 19 78
e 19 85
e 19 97
e 19 99
e 20 66
e 21 32
e 21 38
e 21 58
e 21 64
e 21 71
e 21 76
e 21 89
e 22 35
e 22 62
e 22 75
e 22 77
e 22 85
e 22 86
e 22 98
e 23 26
e 23 32
e 23 36
e 23 39
e 23 45
e 23 47
e 23 48
e 23 53
e 23 59
e 23 65
e 23 67
e 23 69
e 23 71
e 24 27
e 24 38
e 24 49
e 24 61
e 24 91
e 25 45
e 25 79
e 26 28
e 26 29
e 26 34
e 26 45
e 26 65
e 26 66
e 26 84
e 26 85
e 27 32
e 27 38
e 27 77
e 27 79
e 27 88
e 28 31
e 28 43
e 28 70
e 28 76
e 28 86
e 28 87
e 29 42
e 29 48
e 29 70
e 29 72
e 29 77
e 29 81
e 29 90
e 29 92
e 29 97
e 30 46
e 30 50
e 30 54
e 30 55
e 30 57
e 30 60
e 30 68
e 30 69
e 30 72
e 30 74
e 30 75
e 30 81
e 30 88
e 30 90
e 31 46
e 31 53
e 31 76
e 31 87
e 31 91
e 31 95
e 32 58
e 32 59
e 32 67
e 32 70
e 32 71
e 32 78
e 32 81
e 32 82
e 32 89
e 32 99
e 33 37
e 33 38
e 33 46
e 33 77
e 34 43
e 34 44
e 34 55
e 34 59
e 34 95
e 35 45
e 35 55
e 35 97
e 35 100
e 36 40
e 36 42
e 36 52
e 36 63
e 36 71
e 36 84
e 36 91
e 36 97
e 37 74
e 37 89
e 38 56
e 38 73
e 38 94
e 38 100
e 39 43
e 39 44
e 39 45
e 39 57
e 39 68
e 39 74
e 39 75
e 39 81
e 40 44
e 40 50
e 40 55
e 40 57
e 40 59
e 40 62
e 40 65
e 40 68
e 40 73
e 41 59
e 41 60
e 41 69
e 41 75
e 41 77
e 41 79
e 41 80
e 42 47
e 42 50
e 42 51
e 42 53
e 42 60
e 42 64
e 42 75
e 42 91
e 42 93
e 43 64
e 43 72
e 43 75
e 43 93
e 44 51
e 44 55
e 44 66
e 44 67
e 44 70
e 44 93
e 45 53
e 45 57
e 45 58
e 45 60
e 45 73
e 45 87
e 45 93
e 46 48
e 46 57
e 46 67
e 46 72
e 46 78
e 46 94
e 46 95
e 47 59
e 47 60
e 47 63
e 47 75
e 47 82
e 47 91
e 48 64
e 48 66
e 48 76
e 49 61
e 49 66
e 49 72
e 49 98
e 50 51
e 50 60
e 50 72
e 50 95
e 51 56
e 51 58
e 51 62
e 51 66
e 51 78
e 51 83
e 51 88
e 51 90
e 52 54
e 52 68
e 52 73
e 52 77
e 53 66
e 53 80
e 53 94
e 53 99
e 54 61
e 54 84
e 54 86
e 54 87
e 54 97
e 55 76
e 55 79
e 55 91
e 55 95
e 56 68
e 56 77
e 56 91
e 56 96
e 57 77
e 57 80
e 57 88
e 58 66
e 58 74
e 58 84
e 58 88
e 58 96
e 58 98
e 59 60
e 59 66
e 59 82
e 60 75
e 61 62
e 61 71
e 61 89
e 62 65
e 62 68
e 62 82
e 62 94
e 62 99
e 62 100
e 63 84
e 63 93
e 63 96
e 64 69
e 64 71
e 65 69
e 65 71
e 65 84
e 65 96
e 66 75
e 66 89
e 66 90
e 66 92
e 67 77
e 67 91
e 67 96
e 68 81
e 69 92
e 70 75
e 70 84
e 70 87
e 70 94
e 71 74
e 71 76
e 71 87
e 71 90
e 71 94
e 71 99
e 72 75
e 72 85
e 72 100
e 73 80
e 73 88
e 73 90
e 73 92
e 73 95
e 74 78
e 74 84
e 74 98
e 74 99
e 75 87
e 75 99
e 76 79
e 76 99
e 77 80
e 77 81
e 77 89
e 77 90
e 77 100
e 78 82
e 78 89
e 78 91
e 78 99
e 79 82
e 79 83
e 80 87
e 80 99
e 81 93
e 82 95
e 83 95
e 84 100
e 85 88
e 86 92
e 87 91
e 87 98
e 88 91
e 88 97
e 88 99
e 89 99
e 90 97
e 91 97
e 92 100
e 94 97
e 95 97
e 96 98
e 97 98
e 98 99
